
Gurobi 10.0.1 (linux64) logging started Sun Nov 26 15:51:52 2023

Set parameter LogFile to value "ArtificialInstance/ExperimentV2/S4T5K1/AdRo/gurobiDoRo59.txt"
Gurobi Optimizer version 10.0.1 build v10.0.1rc0 (linux64)

CPU model: AMD EPYC 7H12 64-Core Processor, instruction set [SSE2|AVX|AVX2]
Thread count: 128 physical cores, 128 logical processors, using up to 32 threads

Academic license 656792 - for non-commercial use only - registered to b.___@student.vu.nl
Optimize a model with 5659 rows, 5206 columns and 20577 nonzeros
Model fingerprint: 0x3f08b4d6
Variable types: 1 continuous, 5205 integer (5205 binary)
Coefficient statistics:
  Matrix range     [1e+00, 4e+01]
  Objective range  [1e+00, 2e+01]
  Bounds range     [1e+00, 1e+00]
  RHS range        [1e+00, 1e+00]
Presolve removed 1913 rows and 1511 columns
Presolve time: 0.07s
Presolved: 3746 rows, 3695 columns, 14400 nonzeros
Variable types: 1 continuous, 3694 integer (3694 binary)
Found heuristic solution: objective 79.7559651

Root relaxation: objective 7.711902e+01, 1503 iterations, 0.04 seconds (0.03 work units)

    Nodes    |    Current Node    |     Objective Bounds      |     Work
 Expl Unexpl |  Obj  Depth IntInf | Incumbent    BestBd   Gap | It/Node Time

     0     0   77.11902    0   31   79.75597   77.11902  3.31%     -    0s
H    0     0                      77.1190246   77.11902  0.00%     -    0s
     0     0   77.11902    0   31   77.11902   77.11902  0.00%     -    0s

Explored 1 nodes (2475 simplex iterations) in 0.18 seconds (0.12 work units)
Thread count was 32 (of 128 available processors)

Solution count 2: 77.119 79.756 

Optimal solution found (tolerance 1.00e-04)
Best objective 7.711902462645e+01, best bound 7.711902462645e+01, gap 0.0000%
